50, 912
41, 41
41, 44
30, 35
26, 29
44, 44
26, 31
48, 50
25, 30
46, 50
47, 45
25, 30
38, 35
44, 40
37, 38
39, 41
34, 39
32, 32
44, 39
26, 23
39, 38
42, 40
36, 36
26, 24
25, 23
47, 52
29, 32
44, 40
33, 32
30, 26
28, 33
28, 23
38, 38
47, 50
29, 31
40, 41
48, 47
43, 45
38, 43
35, 33
40, 40
27, 30
42, 42
44, 44
49, 50
38, 37
45, 49
28, 30
37, 35
30, 30
27, 30
